c Random 3-CNF over 20 variables and 100 clauses
c Generated with `cnfgen`
c (C) 2012-2016 Massimo Lauria <lauria.massimo@gmail.com>
c https://massimolauria.github.io/cnfgen
c
c COMMAND LINE: cnfgen --output tmp-3-20-100.dimacs --output-format dimacs randkcnf 3 20 100
c
c sdimacs generated by gen-sdimacs
c
p cnf 20 100
r 0.5 1 2 3 4 5 6 7 8 9 10 0
e  11 12 13 14 15 16 17 18 19 20 0
-3 -8 -15 0
1 11 -16 0
-6 -9 18 0
-5 -6 17 0
-6 7 15 0
1 2 -11 0
2 13 -19 0
-3 8 -11 0
-5 -9 18 0
-12 -14 -20 0
-1 -12 -15 0
2 3 14 0
-4 6 7 0
2 3 -12 0
-10 11 -18 0
-11 -13 16 0
4 13 -17 0
11 14 -19 0
-7 10 -15 0
-4 10 -17 0
1 13 17 0
-10 13 -14 0
-2 10 13 0
2 -13 -16 0
4 6 -15 0
3 10 -15 0
3 12 18 0
3 -12 -14 0
-4 -8 16 0
11 -13 18 0
-7 -11 16 0
13 16 -20 0
10 14 -16 0
4 5 -12 0
11 13 -15 0
-8 -11 -12 0
-10 13 -17 0
3 15 20 0
-2 16 19 0
-1 8 -9 0
9 15 -16 0
10 -15 -17 0
-7 -10 -15 0
-6 -8 -14 0
-6 -19 -20 0
-6 -12 14 0
9 -14 18 0
-3 -6 -11 0
6 7 20 0
2 -5 -13 0
-5 10 -20 0
-1 -2 -13 0
1 6 17 0
11 -16 19 0
-2 -10 14 0
-2 8 -9 0
6 -16 18 0
7 -8 -15 0
-1 -17 -19 0
7 14 -15 0
-1 10 -13 0
-4 5 13 0
1 -2 11 0
-6 14 19 0
4 -9 -12 0
-3 -17 19 0
5 15 19 0
10 17 19 0
1 -2 19 0
2 11 14 0
-1 -7 -14 0
-17 -18 19 0
-8 -11 -16 0
7 12 -15 0
5 -6 19 0
-1 8 -19 0
2 5 15 0
-4 11 14 0
11 -16 -20 0
-11 -14 -19 0
2 5 -8 0
1 3 18 0
1 -4 13 0
-3 12 -16 0
2 8 -19 0
1 -5 20 0
4 -5 -11 0
2 13 14 0
-1 12 -19 0
3 -11 16 0
3 8 10 0
-3 -13 -19 0
-11 13 -20 0
5 10 -17 0
-10 -11 13 0
-1 15 -18 0
-1 -9 19 0
-2 6 -18 0
8 -13 16 0
-5 -8 -11 0
